# Solution for model micodag
# Objective value = 7.4817221457293090e+00
s_0_1 0
s_1_0 0
s_0_2 0
s_2_0 0
s_1_2 4.9148805158027429e+00
s_2_1 0
s_2_3 0
s_3_2 0
s_2_5 0
s_5_2 4.9148805158027429e+00
s_3_4 0
s_4_3 0
s_3_5 0
s_5_3 7.8194329956730257e-01
s_3_6 0
s_6_3 6.2535547330462027e-01
s_4_5 0
s_5_4 0
s_4_6 0
s_6_4 7.0557905129054177e-01
s_4_7 0
s_7_4 3.3262609328026294e-01
s_5_6 0
s_6_5 0
s_5_7 0
s_7_5 5.8920879463428122e-01
s_5_8 0
s_8_5 2.6913051587222192e-01
s_6_7 0
s_7_6 0
s_6_8 0
s_8_6 4.9148805158027429e+00
s_7_8 0
s_8_7 4.7920046337743560e-01
s_0_0 1.9342900287622462e+00
s_1_1 1.9604248991689923e+00
s_2_2 4.9148805158027429e+00
s_3_3 1.0857812280265144e+00
s_4_4 6.6226982688116731e-01
s_5_5 2.1011588331701141e+00
s_6_6 4.9148805158027429e+00
s_7_7 8.7150503314892713e-01
s_8_8 1.1098531673951832e+00
Gamma_0_0 1.3907875570202111e+00
Gamma_0_1 0
Gamma_0_2 0
Gamma_0_3 0
Gamma_0_4 0
Gamma_0_5 0
Gamma_0_6 0
Gamma_0_7 0
Gamma_0_8 0
Gamma_1_0 0
Gamma_1_1 1.4001517414798270e+00
Gamma_1_2 1.0676951568208601e+00
Gamma_1_3 0
Gamma_1_4 0
Gamma_1_5 0
Gamma_1_6 0
Gamma_1_7 0
Gamma_1_8 0
Gamma_2_0 0
Gamma_2_1 0
Gamma_2_2 1.1191224861292337e+00
Gamma_2_3 0
Gamma_2_4 0
Gamma_2_5 0
Gamma_2_6 0
Gamma_2_7 0
Gamma_2_8 0
Gamma_3_0 0
Gamma_3_1 0
Gamma_3_2 0
Gamma_3_3 1.0420082667745560e+00
Gamma_3_4 0
Gamma_3_5 0
Gamma_3_6 0
Gamma_3_7 0
Gamma_3_8 0
Gamma_4_0 0
Gamma_4_1 0
Gamma_4_2 0
Gamma_4_3 0
Gamma_4_4 8.1379962329873790e-01
Gamma_4_5 0
Gamma_4_6 0
Gamma_4_7 0
Gamma_4_8 0
Gamma_5_0 0
Gamma_5_1 0
Gamma_5_2 -8.4555241811304249e-01
Gamma_5_3 -8.8427557897258680e-01
Gamma_5_4 0
Gamma_5_5 1.4495374549041891e+00
Gamma_5_6 0
Gamma_5_7 0
Gamma_5_8 0
Gamma_6_0 0
Gamma_6_1 0
Gamma_6_2 0
Gamma_6_3 -7.9079420414202639e-01
Gamma_6_4 8.3998753043753127e-01
Gamma_6_5 0
Gamma_6_6 1.0546967953480770e+00
Gamma_6_7 0
Gamma_6_8 0
Gamma_7_0 0
Gamma_7_1 0
Gamma_7_2 0
Gamma_7_3 0
Gamma_7_4 5.7673745611002536e-01
Gamma_7_5 7.6759937117892552e-01
Gamma_7_6 0
Gamma_7_7 9.3354433914460022e-01
Gamma_7_8 0
Gamma_8_0 0
Gamma_8_1 0
Gamma_8_2 0
Gamma_8_3 0
Gamma_8_4 0
Gamma_8_5 -5.1877790611418861e-01
Gamma_8_6 7.5462992907408177e-01
Gamma_8_7 6.9224306668787694e-01
Gamma_8_8 1.0534956893102052e+00
psi_0 0
psi_1 0
psi_2 3
psi_3 3
psi_4 2
psi_5 2
psi_6 1
psi_7 1
psi_8 0
g_0_0 0
g_0_1 0
g_0_2 0
g_0_3 0
g_0_4 0
g_0_5 0
g_0_6 0
g_0_7 0
g_0_8 0
g_1_0 0
g_1_1 0
g_1_2 1
g_1_3 0
g_1_4 0
g_1_5 0
g_1_6 0
g_1_7 0
g_1_8 0
g_2_0 0
g_2_1 0
g_2_2 0
g_2_3 0
g_2_4 0
g_2_5 0
g_2_6 0
g_2_7 0
g_2_8 0
g_3_0 0
g_3_1 0
g_3_2 0
g_3_3 0
g_3_4 0
g_3_5 0
g_3_6 0
g_3_7 0
g_3_8 0
g_4_0 0
g_4_1 0
g_4_2 0
g_4_3 0
g_4_4 0
g_4_5 0
g_4_6 0
g_4_7 0
g_4_8 0
g_5_0 0
g_5_1 0
g_5_2 1
g_5_3 1
g_5_4 0
g_5_5 0
g_5_6 0
g_5_7 0
g_5_8 0
g_6_0 0
g_6_1 0
g_6_2 0
g_6_3 1
g_6_4 1
g_6_5 0
g_6_6 0
g_6_7 0
g_6_8 0
g_7_0 0
g_7_1 0
g_7_2 0
g_7_3 0
g_7_4 1
g_7_5 1
g_7_6 0
g_7_7 0
g_7_8 0
g_8_0 0
g_8_1 0
g_8_2 0
g_8_3 0
g_8_4 0
g_8_5 1
g_8_6 1
g_8_7 1
g_8_8 0
T_0 -6.5974034895333489e-01
T_1 -6.7316123503819369e-01
T_2 -2.2508976737456976e-01
T_3 -8.2299753729074610e-02
T_4 4.1208221261270239e-01
T_5 -7.4248901784888233e-01
T_6 -1.0650665569407636e-01
T_7 1.3753363876745084e-01
T_8 -1.0422772494830213e-01
